Minimize

9.99 x_0 + 9.95 x_1 + 5.99 x_2 + 5.95 x_3 + 19.99 x_4 + 19.95 x_5 + 2.49 x_6 + 2.45 x_7 + 14.99 x_8 + 14.95 x_9


Subject To

a0: x_0 + x_1 + x_4 + x_6 >= 1
a1: x_0 + x_5 + x_7 + x_8 >= 1
a2: x_4 + x_9 >= 1
a3: x_3 + x_5 + x_9 >= 1
a4: x_1 + x_4 + x_9 >= 1
a5: x_2 + x_5 + x_8 >= 1
a6: x_4 + x_8 >= 1
a7: x_3 + x_5 >= 1
a8: x_2 >= 1




Binary

x_0 x_1 x_2 x_3 x_4 x_5 x_6 x_7 x_8 x_9

 
End
